
Gurobi 6.0.4 (win64) logging started 06/18/15 20:06:17

Read LP format model from file E:\Eigene Dateien\Downloads\Michi shit\VRPTWMS2\instances\mip\fuel\N8-C_DV100-C_SV25_F5_5_No_1.lp
Reading time = 0.00 seconds
(null): 417 rows, 208 columns, 1715 nonzeros
Optimize a model with 417 rows, 208 columns and 1715 nonzeros
Model has 576 quadratic constraints
Coefficient statistics:
  Matrix range    [1e+00, 1e+06]
  Objective range [2e+04, 1e+07]
  Bounds range    [1e+00, 1e+06]
  RHS range       [1e+00, 1e+06]
Presolve removed 41 rows and 28 columns
Presolve time: 0.03s
Presolved: 1368 rows, 697 columns, 6526 nonzeros
Variable types: 475 continuous, 222 integer (179 binary)
Found heuristic solution: objective 8.339160e+07

Root relaxation: objective 1.030273e+07, 129 iterations, 0.00 seconds

    Nodes    |    Current Node    |     Objective Bounds      |     Work
 Expl Unexpl |  Obj  Depth IntInf | Incumbent    BestBd   Gap | It/Node Time

     0     0 1.0303e+07    0   28 8.3392e+07 1.0303e+07  87.6%     -    0s
H    0     0                    6.313560e+07 1.0303e+07  83.7%     -    0s
     0     0 1.3534e+07    0   32 6.3136e+07 1.3534e+07  78.6%     -    0s
H    0     0                    5.308100e+07 1.3534e+07  74.5%     -    0s
     0     0 2.1661e+07    0    6 5.3081e+07 2.1661e+07  59.2%     -    0s
H    0     0                    4.245440e+07 2.1661e+07  49.0%     -    0s
     0     0 2.1718e+07    0    8 4.2454e+07 2.1718e+07  48.8%     -    0s
H    0     0                    3.195110e+07 2.1718e+07  32.0%     -    0s
     0     0 2.1718e+07    0    8 3.1951e+07 2.1718e+07  32.0%     -    0s
     0     0 2.1718e+07    0    7 3.1951e+07 2.1718e+07  32.0%     -    0s
     0     0 2.1718e+07    0    7 3.1951e+07 2.1718e+07  32.0%     -    0s
     0     0 2.1718e+07    0    7 3.1951e+07 2.1718e+07  32.0%     -    0s
     0     2 2.1718e+07    0    7 3.1951e+07 2.1718e+07  32.0%     -    0s

Cutting planes:
  Learned: 4
  Gomory: 2
  Cover: 170
  Implied bound: 180
  Clique: 11
  MIR: 23
  GUB cover: 5

Explored 5940 nodes (107036 simplex iterations) in 1.42 seconds
Thread count was 4 (of 4 available processors)

Optimal solution found (tolerance 1.00e-04)
Best objective 3.195110000000e+07, best bound 3.195110000000e+07, gap 0.0%
k_c1	890000.0
k_c2	980000.0
k_c3	1000000.0
k_c4	960000.0
k_c5	40000.0
k_c6	950000.0
k_c7	930000.0
k_c8	1000000.0
k_dN	-0.0
o_1	0.0
o_2	0.0
o_3	0.0
o_4	0.0
o_5	0.0
o_6	0.0
o_7	0.0
o_8	0.0
p_1	0.0
p_2	0.0
p_3	0.0
p_4	0.0
p_5	0.0
p_6	0.0
p_7	0.0
p_8	0.0
phi_c1	4282.0
phi_c2	25113.0
phi_c3	32835.0
phi_c4	31336.0
phi_c5	17601.0
phi_c6	21326.0
phi_c7	17274.0
phi_c8	30325.0
phi_dN	0.0
pi_c1	0.0
pi_c2	0.0
pi_c3	0.0
pi_c4	0.0
pi_c5	0.0
pi_c6	0.0
pi_c7	0.0
pi_c8	0.0
pi_dN	-0.0
tauD_c1	400000.0
tauD_c2	234600.0
tauD_c3	101850.0
tauD_c4	147450.0
tauD_c5	700000.0
tauD_c6	450000.0
tauD_c7	250000.0
tauD_c8	100000.0
tauD_d0	-0.0
tauD_dN	1000000.0
tauS_c1	0.0
tauS_c2	232075.0
tauS_c3	0.0
tauS_c4	0.0
tauS_c5	0.0
tauS_c6	181675.0
tauS_c7	0.0
tauS_c8	0.0
tauS_d0	-0.0
tauS_dN	0.0
x_c1_dN	1.0
x_c2_c6	1.0
x_c3_c4	1.0
x_c4_c7	1.0
x_c5_dN	1.0
x_c6_dN	1.0
x_c7_c1	1.0
x_c8_c5	1.0
x_d0_c2	1.0
x_d0_c3	1.0
x_d0_c8	1.0
